CMD:
./solvers/bin/cadical --plain --no-reduce -t 1600 ./data/cnfs//bob2/bob2.64.cnf

c --- [ banner ] -------------------------------------------------------------
c 
c CaDiCaL SAT Solver
c Copyright (c) 2016-2024
c A. Biere, M. Fleury, N. Froleyks, K. Fazekas, F. Pollitt, T. Faller
c JKU Linz, University of Freiburg, TU Wien
c 
c Version 2.1.3 5296d3d2a9bf48c154ab2acb5e44625776d821bf
c g++ (Gentoo 12.3.1_p20230526 p2) 12.3.1 20230526 -Wall -Wextra -O3 -DNDEBUG
c Sat Aug 9 07:26:21 PDT 2025 Linux cedar2.int.cedar.computecanada.ca 5.14.0-362.24.2.el9_3.x86_64 x86_64
c 
c --- [ limit ] --------------------------------------------------------------
c 
c setting time limit to 1600 seconds real time (due to '-t 1600')
c 
c --- [ parsing input ] ------------------------------------------------------
c 
c reading DIMACS file from './data/cnfs//bob2/bob2.64.cnf'
c opening file to read './data/cnfs//bob2/bob2.64.cnf'
c found 'p cnf 8224 23824' header
c parsed 23824 clauses in 0.00 seconds process time
c 
c --- [ options ] ------------------------------------------------------------
c 
c   --compact=false                (different from default 'true')
c   --decompose=false              (different from default 'true')
c   --deduplicate=false            (different from default 'true')
c   --elim=false                   (different from default 'true')
c   --probe=false                  (different from default 'true')
c   --reduce=false                 (different from default 'true')
c   --subsume=false                (different from default 'true')
c   --ternary=false                (different from default 'true')
c   --transred=false               (different from default 'true')
c   --vivify=false                 (different from default 'true')
c 
c --- [ solving ] ------------------------------------------------------------
c 
c time measured in process time since initialization
c 
c  seconds  reductions  redundant  irredundant
c         MB    restarts       trail     variables
c          level   conflicts       glue       remaining
c 
c *  0.00  7  0 0   0    0    0  0% 0 23001 7579 92%
c {  0.00  8  0 0   0    0    0  0% 0 23001 7579 92%
c }  0.01  8 24 0 151 1001  950 23% 3 23001 7579 92%
c [  0.01  8  0 0 151 1001  950  0% 0 23001 7579 92%
c O  0.01  8  3 0 151 1002  951 10% 1 23001 7579 92%
c ]  0.04  8 94 0 152 3001 2786 58% 4 23001 7579 92%
c {  0.04  8 24 0 152 3001 2786 23% 3 23001 7579 92%
c F  0.04  8 24 0 153 3003 2788 23% 3 23001 7579 92%
c i  0.07  9 21 0 477 4648 4312 22% 3 23001 7578 92%
c #  0.09  9 21 0 605 6005 5559 24% 3 23001 7578 92%
c }  0.11  9 22 0 692 7002 6473 24% 3 23001 7578 92%
c [  0.11  9 94 0 692 7002 6473 58% 4 23001 7578 92%
c I  0.17 10 56 0 694 10006 9114 43% 5 23001 7578 92%
c i  0.19 10 50 0 695 10728 9673 40% 5 23001 7568 92%
c i  0.25 10 41 0 696 13172 11723 35% 5 23001 7510 91%
c i  0.25 10 40 0 696 13266 11783 34% 5 23001 7479 91%
c i  0.26 10 40 0 696 13364 11871 34% 5 23001 7405 90%
c ]  0.26 10 40 0 696 13366 11871 34% 5 23001 7107 86%
c 0  0.26 10 40 0 696 13366 11871 34% 5 23001 7107 86%
c 
c --- [ result ] -------------------------------------------------------------
c 
s UNSATISFIABLE
c 
c --- [ run-time profiling ] -------------------------------------------------
c 
c process time taken by individual solving procedures
c (percentage relative to process time for solving)
c 
c         0.25   99.97% search
c         0.18   71.26% stable
c         0.07   28.57% unstable
c         0.00    1.44% parse
c         0.00    0.12% lucky
c         0.00    0.00% simplify
c   =================================
c         0.25   98.46% solve
c 
c last line shows process time for solving
c (percentage relative to total process time)
c 
c --- [ statistics ] ---------------------------------------------------------
c 
c chronological:              4512        33.76 %  of conflicts
c conflicts:                 13366     52869.74    per second
c decisions:                 28607    113156.13    per second
c fixed:                      1117        13.58 %  of all variables
c learned:                   12997        97.24 %  per conflict
c learned_lits:             193616       100.00 %  learned literals
c minimized:                     0         0.00 %  learned literals
c shrunken:                  31633        16.34 %  learned literals
c minishrunken:              32160        16.61 %  learned literals
c otfs:                        170         1.27 %  of conflict
c propagations:            2610454        10.33 M  per second
c rephased:                      4      3341.50    interval
c restarts:                    696        19.20    interval
c stabilizing:                   2        62.54 %  of conflicts
c subsumed:                   1126         3.13 %  of all clauses
c strengthened:                164         0.46 %  of all clauses
c 
c seconds are measured in process time for solving
c 
c --- [ resources ] ----------------------------------------------------------
c 
c total process time since initialization:         0.26    seconds
c total real time since initialization:            0.26    seconds
c maximum resident set size of process:           32.98    MB
c 
c --- [ shutting down ] ------------------------------------------------------
c 
c exit 20
